(declare-fun ExpandObjSwitcher () Real)
(declare-fun CreateAsClass () Bool)
(declare-fun ExpandObjSwitcher_2 () Real)
(define-funs-rec ( ( str.repeat ((x!1 String) (x!2 Int)) String)
                   ( str.whiteLeft ((x!1 String) (x!2 Int)) Int)
                   ( str.whiteRight ((x!1 String) (x!2 Int)) Int))
                 ( (ite (<= x!2 0)
                        ""
                        (str.++ x!1 ((_ str.repeat 0) x!1 (- x!2 1))))
                   (ite (= (str.at x!1 x!2) " ")
                        ((_ str.whiteLeft 0) x!1 (+ x!2 1))
                        x!2)
                   (ite (= (str.at x!1 x!2) " ")
                        ((_ str.whiteRight 0) x!1 (- x!2 1))
                        x!2)))
(assert (= ExpandObjSwitcher 1.0))
(assert CreateAsClass)
(assert (not (= ExpandObjSwitcher_2 0.0)))
(assert (not (= ExpandObjSwitcher_2 1.0)))
(assert (not (= ExpandObjSwitcher_2 2.0)))
(assert (not (= ExpandObjSwitcher_2 3.0)))
(assert (not (= ExpandObjSwitcher_2 4.0)))
(assert (not (= ExpandObjSwitcher_2 5.0)))
(assert (not (= ExpandObjSwitcher_2 6.0)))
(assert (not (= ExpandObjSwitcher_2 7.0)))
(assert (not (= ExpandObjSwitcher_2 8.0)))
(assert (not (= ExpandObjSwitcher_2 9.0)))
(assert (not (= ExpandObjSwitcher_2 10.0)))
(assert (not (= ExpandObjSwitcher_2 11.0)))

(check-sat)
